maximize
42472 x(1,1) + 1000 x(1,1) + 3.56 x(1,1) + 540.0 x(1,1) + 0 x(1,1) + 52336.5 x(1,1) + 42.0 x(1,1) + 755 x(1,1) + 235.8 x(1,1) + 40753 x(1,2) + 1000 x(1,2) + 3.56 x(1,2) + 540.0 x(1,2) + 0 x(1,2) + 52336.5 x(1,2) + 42.0 x(1,2) + 755 x(1,2) + 268.99 x(1,2) + 35010 x(1,3) + 1000 x(1,3) + 3.56 x(1,3) + 540.0 x(1,3) + 0 x(1,3) + 52336.5 x(1,3) + 42.0 x(1,3) + 755 x(1,3) + 384.41999999999996 x(1,3) + 32892 x(1,4) + 1000 x(1,4) + 3.56 x(1,4) + 540.0 x(1,4) + 0 x(1,4) + 52336.5 x(1,4) + 42.0 x(1,4) + 755 x(1,4) + 426.6 x(1,4) + 32892 x(1,5) + 1000 x(1,5) + 3.56 x(1,5) + 540.0 x(1,5) + 0 x(1,5) + 52336.5 x(1,5) + 42.0 x(1,5) + 96 x(1,5) + 426.6 x(1,5) + 40428 x(2,1) + 1000 x(2,1) + 4.68 x(2,1) + 520.0 x(2,1) + 0 x(2,1) + 55875.414899999996 x(2,1) + 0 x(2,1) + 216 x(2,1) + 414.24 x(2,1) + 40282 x(2,2) + 1000 x(2,2) + 4.68 x(2,2) + 520.0 x(2,2) + 0 x(2,2) + 55875.414899999996 x(2,2) + 0 x(2,2) + 755 x(2,2) + 139.7 x(2,2) + 33402 x(2,3) + 1000 x(2,3) + 4.68 x(2,3) + 520.0 x(2,3) + 0 x(2,3) + 55875.414899999996 x(2,3) + 0 x(2,3) + 755 x(2,3) + 104.24 x(2,3) + 44902 x(3,1) + 960 x(3,1) + 3.94 x(3,1) + 0 x(3,1) + 320.0 x(3,1) + 0.0 x(3,1) + 110.0 x(3,1) + 755 x(3,1) + 1028.5 x(3,1) + 44417 x(3,2) + 960 x(3,2) + 3.94 x(3,2) + 0 x(3,2) + 320.0 x(3,2) + 0.0 x(3,2) + 110.0 x(3,2) + 755 x(3,2) + 98.35 x(3,2) + 43802 x(3,3) + 960 x(3,3) + 3.94 x(3,3) + 0 x(3,3) + 320.0 x(3,3) + 0.0 x(3,3) + 110.0 x(3,3) + 755 x(3,3) + 208.5 x(3,3) + 43553 x(3,4) + 960 x(3,4) + 3.94 x(3,4) + 0 x(3,4) + 320.0 x(3,4) + 0.0 x(3,4) + 110.0 x(3,4) + 356 x(3,4) + 212.99 x(3,4) + 30785 x(4,1) + 2000 x(4,1) + 4.62 x(4,1) + 540.0 x(4,1) + 0 x(4,1) + 52336.5 x(4,1) + 42.0 x(4,1) + 755 x(4,1) + 468.66999999999996 x(4,1) + 30784 x(4,2) + 2000 x(4,2) + 4.62 x(4,2) + 540.0 x(4,2) + 0 x(4,2) + 52336.5 x(4,2) + 42.0 x(4,2) + 755 x(4,2) + 469.68 x(4,2) + 20375 x(4,3) + 2000 x(4,3) + 4.62 x(4,3) + 540.0 x(4,3) + 0 x(4,3) + 52336.5 x(4,3) + 42.0 x(4,3) + 755 x(4,3) + 677.77 x(4,3) + 16642 x(4,4) + 2000 x(4,4) + 4.62 x(4,4) + 540.0 x(4,4) + 0 x(4,4) + 52336.5 x(4,4) + 42.0 x(4,4) + 755 x(4,4) + 752.1 x(4,4) + 16642 x(4,5) + 2000 x(4,5) + 4.62 x(4,5) + 540.0 x(4,5) + 0 x(4,5) + 52336.5 x(4,5) + 42.0 x(4,5) + 96 x(4,5) + 752.1 x(4,5) + 27272 x(5,1) + 2000 x(5,1) + 0 x(5,1) + 1050.0 x(5,1) + 1000.0 x(5,1) + 62152.5 x(5,1) + 58.0 x(5,1) + 216 x(5,1) + 538.8 x(5,1) + 27272 x(5,2) + 2000 x(5,2) + 0 x(5,2) + 1050.0 x(5,2) + 1000.0 x(5,2) + 62152.5 x(5,2) + 58.0 x(5,2) + 755 x(5,2) + 538.8 x(5,2) + 21972 x(5,3) + 2000 x(5,3) + 0 x(5,3) + 1050.0 x(5,3) + 1000.0 x(5,3) + 62152.5 x(5,3) + 58.0 x(5,3) + 755 x(5,3) + 0 x(5,3) + 20754 x(5,4) + 2000 x(5,4) + 0 x(5,4) + 1050.0 x(5,4) + 1000.0 x(5,4) + 62152.5 x(5,4) + 58.0 x(5,4) + 166 x(5,4) + 0 x(5,4) + 20322 x(5,5) + 2000 x(5,5) + 0 x(5,5) + 1050.0 x(5,5) + 1000.0 x(5,5) + 62152.5 x(5,5) + 58.0 x(5,5) + 755 x(5,5) + 678.3 x(5,5) + 18904 x(5,6) + 2000 x(5,6) + 0 x(5,6) + 1050.0 x(5,6) + 1000.0 x(5,6) + 62152.5 x(5,6) + 58.0 x(5,6) + 156 x(5,6) + 0 x(5,6) + 18707 x(5,7) + 2000 x(5,7) + 0 x(5,7) + 1050.0 x(5,7) + 1000.0 x(5,7) + 62152.5 x(5,7) + 58.0 x(5,7) + 166 x(5,7) + 0 x(5,7) + 17042 x(5,8) + 2000 x(5,8) + 0 x(5,8) + 1050.0 x(5,8) + 1000.0 x(5,8) + 62152.5 x(5,8) + 58.0 x(5,8) + 755 x(5,8) + 4093.1 x(5,8) + 17042 x(5,9) + 2000 x(5,9) + 0 x(5,9) + 1050.0 x(5,9) + 1000.0 x(5,9) + 62152.5 x(5,9) + 58.0 x(5,9) + 755 x(5,9) + 4093.1 x(5,9) + 0 x(5,10) + 2000 x(5,10) + 0 x(5,10) + 1050.0 x(5,10) + 1000.0 x(5,10) + 62152.5 x(5,10) + 58.0 x(5,10) + 755 x(5,10) + 0 x(5,10) + 30622 x(6,1) + 2000 x(6,1) + 3.97 x(6,1) + 520.0 x(6,1) + 0 x(6,1) + 55875.414899999996 x(6,1) + 0 x(6,1) + 156 x(6,1) + 0 x(6,1) + 30452 x(6,2) + 2000 x(6,2) + 3.97 x(6,2) + 520.0 x(6,2) + 0 x(6,2) + 55875.414899999996 x(6,2) + 0 x(6,2) + 755 x(6,2) + 2618.0 x(6,2) + 29752 x(6,3) + 2000 x(6,3) + 3.97 x(6,3) + 520.0 x(6,3) + 0 x(6,3) + 55875.414899999996 x(6,3) + 0 x(6,3) + 755 x(6,3) + 0 x(6,3) + 33872 x(7,1) + 1000 x(7,1) + 5.0 x(7,1) + 1050.0 x(7,1) + 1000.0 x(7,1) + 53743.25414 x(7,1) + 0 x(7,1) + 755 x(7,1) + 208.8 x(7,1) + 33872 x(7,2) + 1000 x(7,2) + 5.0 x(7,2) + 1050.0 x(7,2) + 1000.0 x(7,2) + 53743.25414 x(7,2) + 0 x(7,2) + 755 x(7,2) + 406.8 x(7,2) + 33872 x(7,3) + 1000 x(7,3) + 5.0 x(7,3) + 1050.0 x(7,3) + 1000.0 x(7,3) + 53743.25414 x(7,3) + 0 x(7,3) + 755 x(7,3) + 0 x(7,3) + 33872 x(7,4) + 1000 x(7,4) + 5.0 x(7,4) + 1050.0 x(7,4) + 1000.0 x(7,4) + 53743.25414 x(7,4) + 0 x(7,4) + 755 x(7,4) + 0 x(7,4) + 33388 x(7,5) + 1000 x(7,5) + 5.0 x(7,5) + 1050.0 x(7,5) + 1000.0 x(7,5) + 53743.25414 x(7,5) + 0 x(7,5) + 216 x(7,5) + 0 x(7,5) + 32783 x(7,6) + 1000 x(7,6) + 5.0 x(7,6) + 1050.0 x(7,6) + 1000.0 x(7,6) + 53743.25414 x(7,6) + 0 x(7,6) + 206 x(7,6) + 428.69 x(7,6) + 32782 x(7,7) + 1000 x(7,7) + 5.0 x(7,7) + 1050.0 x(7,7) + 1000.0 x(7,7) + 53743.25414 x(7,7) + 0 x(7,7) + 755 x(7,7) + 2361.7 x(7,7) + 32782 x(7,8) + 1000 x(7,8) + 5.0 x(7,8) + 1050.0 x(7,8) + 1000.0 x(7,8) + 53743.25414 x(7,8) + 0 x(7,8) + 755 x(7,8) + 2361.7 x(7,8) + 32782 x(7,9) + 1000 x(7,9) + 5.0 x(7,9) + 1050.0 x(7,9) + 1000.0 x(7,9) + 53743.25414 x(7,9) + 0 x(7,9) + 755 x(7,9) + 214.7 x(7,9) + 32782 x(7,10) + 1000 x(7,10) + 5.0 x(7,10) + 1050.0 x(7,10) + 1000.0 x(7,10) + 53743.25414 x(7,10) + 0 x(7,10) + 755 x(7,10) + 214.7 x(7,10) + 32782 x(7,11) + 1000 x(7,11) + 5.0 x(7,11) + 1050.0 x(7,11) + 1000.0 x(7,11) + 53743.25414 x(7,11) + 0 x(7,11) + 755 x(7,11) + 214.7 x(7,11) + 32782 x(7,12) + 1000 x(7,12) + 5.0 x(7,12) + 1050.0 x(7,12) + 1000.0 x(7,12) + 53743.25414 x(7,12) + 0 x(7,12) + 755 x(7,12) + 2361.7 x(7,12) + 32782 x(7,13) + 1000 x(7,13) + 5.0 x(7,13) + 1050.0 x(7,13) + 1000.0 x(7,13) + 53743.25414 x(7,13) + 0 x(7,13) + 216 x(7,13) + 2361.7 x(7,13) + 32782 x(7,14) + 1000 x(7,14) + 5.0 x(7,14) + 1050.0 x(7,14) + 1000.0 x(7,14) + 53743.25414 x(7,14) + 0 x(7,14) + 755 x(7,14) + 2361.7 x(7,14) + 32782 x(7,15) + 1000 x(7,15) + 5.0 x(7,15) + 1050.0 x(7,15) + 1000.0 x(7,15) + 53743.25414 x(7,15) + 0 x(7,15) + 755 x(7,15) + 2361.7 x(7,15) + 32652 x(7,16) + 1000 x(7,16) + 5.0 x(7,16) + 1050.0 x(7,16) + 1000.0 x(7,16) + 53743.25414 x(7,16) + 0 x(7,16) + 755 x(7,16) + 0 x(7,16) + 32649 x(7,17) + 1000 x(7,17) + 5.0 x(7,17) + 1050.0 x(7,17) + 1000.0 x(7,17) + 53743.25414 x(7,17) + 0 x(7,17) + 755 x(7,17) + 216.03 x(7,17) + 32220 x(7,18) + 1000 x(7,18) + 5.0 x(7,18) + 1050.0 x(7,18) + 1000.0 x(7,18) + 53743.25414 x(7,18) + 0 x(7,18) + 755 x(7,18) + 220.32 x(7,18) + 32028 x(7,19) + 1000 x(7,19) + 5.0 x(7,19) + 1050.0 x(7,19) + 1000.0 x(7,19) + 53743.25414 x(7,19) + 0 x(7,19) + 755 x(7,19) + 222.24 x(7,19) + 31817 x(7,20) + 1000 x(7,20) + 5.0 x(7,20) + 1050.0 x(7,20) + 1000.0 x(7,20) + 53743.25414 x(7,20) + 0 x(7,20) + 755 x(7,20) + 224.35 x(7,20) + 31724 x(7,21) + 1000 x(7,21) + 5.0 x(7,21) + 1050.0 x(7,21) + 1000.0 x(7,21) + 53743.25414 x(7,21) + 0 x(7,21) + 755 x(7,21) + 327.28 x(7,21) + 31642 x(7,22) + 1000 x(7,22) + 5.0 x(7,22) + 1050.0 x(7,22) + 1000.0 x(7,22) + 53743.25414 x(7,22) + 0 x(7,22) + 755 x(7,22) + 2487.1 x(7,22) + 31642 x(7,23) + 1000 x(7,23) + 5.0 x(7,23) + 1050.0 x(7,23) + 1000.0 x(7,23) + 53743.25414 x(7,23) + 0 x(7,23) + 755 x(7,23) + 2487.1 x(7,23) + 31642 x(7,24) + 1000 x(7,24) + 5.0 x(7,24) + 1050.0 x(7,24) + 1000.0 x(7,24) + 53743.25414 x(7,24) + 0 x(7,24) + 216 x(7,24) + 2486.1 x(7,24) + 31552 x(7,25) + 1000 x(7,25) + 5.0 x(7,25) + 1050.0 x(7,25) + 1000.0 x(7,25) + 53743.25414 x(7,25) + 0 x(7,25) + 755 x(7,25) + 113.5 x(7,25) + 31472 x(7,26) + 1000 x(7,26) + 5.0 x(7,26) + 1050.0 x(7,26) + 1000.0 x(7,26) + 53743.25414 x(7,26) + 0 x(7,26) + 755 x(7,26) + 0 x(7,26) + 31028 x(7,27) + 1000 x(7,27) + 5.0 x(7,27) + 1050.0 x(7,27) + 1000.0 x(7,27) + 53743.25414 x(7,27) + 0 x(7,27) + 755 x(7,27) + 464.24 x(7,27) + 31028 x(7,28) + 1000 x(7,28) + 5.0 x(7,28) + 1050.0 x(7,28) + 1000.0 x(7,28) + 53743.25414 x(7,28) + 0 x(7,28) + 755 x(7,28) + 464.24 x(7,28) + 30602 x(7,29) + 1000 x(7,29) + 5.0 x(7,29) + 1050.0 x(7,29) + 1000.0 x(7,29) + 53743.25414 x(7,29) + 0 x(7,29) + 755 x(7,29) + 473.5 x(7,29) + 30452 x(7,30) + 1000 x(7,30) + 5.0 x(7,30) + 1050.0 x(7,30) + 1000.0 x(7,30) + 53743.25414 x(7,30) + 0 x(7,30) + 755 x(7,30) + 238.0 x(7,30) + 29172 x(7,31) + 1000 x(7,31) + 5.0 x(7,31) + 1050.0 x(7,31) + 1000.0 x(7,31) + 53743.25414 x(7,31) + 0 x(7,31) + 755 x(7,31) + 250.8 x(7,31) + 28842 x(7,32) + 1000 x(7,32) + 5.0 x(7,32) + 1050.0 x(7,32) + 1000.0 x(7,32) + 53743.25414 x(7,32) + 0 x(7,32) + 755 x(7,32) + 254.1 x(7,32) + 28776 x(7,33) + 1000 x(7,33) + 5.0 x(7,33) + 1050.0 x(7,33) + 1000.0 x(7,33) + 53743.25414 x(7,33) + 0 x(7,33) + 108 x(7,33) + 508.76 x(7,33) + 27458 x(7,34) + 1000 x(7,34) + 5.0 x(7,34) + 1050.0 x(7,34) + 1000.0 x(7,34) + 53743.25414 x(7,34) + 0 x(7,34) + 755 x(7,34) + 534.94 x(7,34) + 25652 x(7,35) + 1000 x(7,35) + 5.0 x(7,35) + 1050.0 x(7,35) + 1000.0 x(7,35) + 53743.25414 x(7,35) + 0 x(7,35) + 108 x(7,35) + 286.0 x(7,35) + 25652 x(7,36) + 1000 x(7,36) + 5.0 x(7,36) + 1050.0 x(7,36) + 1000.0 x(7,36) + 53743.25414 x(7,36) + 0 x(7,36) + 108 x(7,36) + 286.0 x(7,36) + 41984 x(8,1) + 1000 x(8,1) + 4.34 x(8,1) + 430.0 x(8,1) + 0 x(8,1) + 83657.9 x(8,1) + 17.0 x(8,1) + 755 x(8,1) + 134.68 x(8,1) + 21452 x(9,1) + 2000 x(9,1) + 5.0 x(9,1) + 1050.0 x(9,1) + 1000.0 x(9,1) + 53743.25414 x(9,1) + 0 x(9,1) + 755 x(9,1) + 0 x(9,1) + 21451 x(9,2) + 2000 x(9,2) + 5.0 x(9,2) + 1050.0 x(9,2) + 1000.0 x(9,2) + 53743.25414 x(9,2) + 0 x(9,2) + 755 x(9,2) + 0 x(9,2) + 20959 x(9,3) + 2000 x(9,3) + 5.0 x(9,3) + 1050.0 x(9,3) + 1000.0 x(9,3) + 53743.25414 x(9,3) + 0 x(9,3) + 755 x(9,3) + 332.93 x(9,3) + 20603 x(9,4) + 2000 x(9,4) + 5.0 x(9,4) + 1050.0 x(9,4) + 1000.0 x(9,4) + 53743.25414 x(9,4) + 0 x(9,4) + 755 x(9,4) + 0 x(9,4) + 20394 x(9,5) + 2000 x(9,5) + 5.0 x(9,5) + 1050.0 x(9,5) + 1000.0 x(9,5) + 53743.25414 x(9,5) + 0 x(9,5) + 755 x(9,5) + 338.58 x(9,5) + 20271 x(9,6) + 2000 x(9,6) + 5.0 x(9,6) + 1050.0 x(9,6) + 1000.0 x(9,6) + 53743.25414 x(9,6) + 0 x(9,6) + 755 x(9,6) + 339.81 x(9,6) + 20201 x(9,7) + 2000 x(9,7) + 5.0 x(9,7) + 1050.0 x(9,7) + 1000.0 x(9,7) + 53743.25414 x(9,7) + 0 x(9,7) + 755 x(9,7) + 340.51 x(9,7) + 19956 x(9,8) + 2000 x(9,8) + 5.0 x(9,8) + 1050.0 x(9,8) + 1000.0 x(9,8) + 53743.25414 x(9,8) + 0 x(9,8) + 755 x(9,8) + 342.96 x(9,8) + 18697 x(9,9) + 2000 x(9,9) + 5.0 x(9,9) + 1050.0 x(9,9) + 1000.0 x(9,9) + 53743.25414 x(9,9) + 0 x(9,9) + 755 x(9,9) + 710.55 x(9,9) + 18372 x(9,10) + 2000 x(9,10) + 5.0 x(9,10) + 1050.0 x(9,10) + 1000.0 x(9,10) + 53743.25414 x(9,10) + 0 x(9,10) + 216 x(9,10) + 400.8 x(9,10) + 18343 x(9,11) + 2000 x(9,11) + 5.0 x(9,11) + 1050.0 x(9,11) + 1000.0 x(9,11) + 53743.25414 x(9,11) + 0 x(9,11) + 206 x(9,11) + 718.0899999999999 x(9,11) + 18342 x(9,12) + 2000 x(9,12) + 5.0 x(9,12) + 1050.0 x(9,12) + 1000.0 x(9,12) + 53743.25414 x(9,12) + 0 x(9,12) + 755 x(9,12) + 3950.1 x(9,12) + 18342 x(9,13) + 2000 x(9,13) + 5.0 x(9,13) + 1050.0 x(9,13) + 1000.0 x(9,13) + 53743.25414 x(9,13) + 0 x(9,13) + 755 x(9,13) + 3950.1 x(9,13) + 18342 x(9,14) + 2000 x(9,14) + 5.0 x(9,14) + 1050.0 x(9,14) + 1000.0 x(9,14) + 53743.25414 x(9,14) + 0 x(9,14) + 755 x(9,14) + 359.1 x(9,14) + 18342 x(9,15) + 2000 x(9,15) + 5.0 x(9,15) + 1050.0 x(9,15) + 1000.0 x(9,15) + 53743.25414 x(9,15) + 0 x(9,15) + 755 x(9,15) + 359.1 x(9,15) + 18342 x(9,16) + 2000 x(9,16) + 5.0 x(9,16) + 1050.0 x(9,16) + 1000.0 x(9,16) + 53743.25414 x(9,16) + 0 x(9,16) + 755 x(9,16) + 3950.1 x(9,16) + 18342 x(9,17) + 2000 x(9,17) + 5.0 x(9,17) + 1050.0 x(9,17) + 1000.0 x(9,17) + 53743.25414 x(9,17) + 0 x(9,17) + 755 x(9,17) + 718.1 x(9,17) + 18342 x(9,18) + 2000 x(9,18) + 5.0 x(9,18) + 1050.0 x(9,18) + 1000.0 x(9,18) + 53743.25414 x(9,18) + 0 x(9,18) + 156 x(9,18) + 3949.1 x(9,18) + 18342 x(9,19) + 2000 x(9,19) + 5.0 x(9,19) + 1050.0 x(9,19) + 1000.0 x(9,19) + 53743.25414 x(9,19) + 0 x(9,19) + 755 x(9,19) + 3949.1 x(9,19) + 18177 x(9,20) + 2000 x(9,20) + 5.0 x(9,20) + 1050.0 x(9,20) + 1000.0 x(9,20) + 53743.25414 x(9,20) + 0 x(9,20) + 755 x(9,20) + 360.75 x(9,20) + 18177 x(9,21) + 2000 x(9,21) + 5.0 x(9,21) + 1050.0 x(9,21) + 1000.0 x(9,21) + 53743.25414 x(9,21) + 0 x(9,21) + 755 x(9,21) + 360.75 x(9,21) + 17802 x(9,22) + 2000 x(9,22) + 5.0 x(9,22) + 1050.0 x(9,22) + 1000.0 x(9,22) + 53743.25414 x(9,22) + 0 x(9,22) + 755 x(9,22) + 1456.5 x(9,22) + 17484 x(9,23) + 2000 x(9,23) + 5.0 x(9,23) + 1050.0 x(9,23) + 1000.0 x(9,23) + 53743.25414 x(9,23) + 0 x(9,23) + 755 x(9,23) + 367.68 x(9,23) + 16731 x(9,24) + 2000 x(9,24) + 5.0 x(9,24) + 1050.0 x(9,24) + 1000.0 x(9,24) + 53743.25414 x(9,24) + 0 x(9,24) + 755 x(9,24) + 375.21 x(9,24) + 16442 x(9,25) + 2000 x(9,25) + 5.0 x(9,25) + 1050.0 x(9,25) + 1000.0 x(9,25) + 53743.25414 x(9,25) + 0 x(9,25) + 755 x(9,25) + 4159.1 x(9,25) + 16442 x(9,26) + 2000 x(9,26) + 5.0 x(9,26) + 1050.0 x(9,26) + 1000.0 x(9,26) + 53743.25414 x(9,26) + 0 x(9,26) + 755 x(9,26) + 4159.1 x(9,26) + 16442 x(9,27) + 2000 x(9,27) + 5.0 x(9,27) + 1050.0 x(9,27) + 1000.0 x(9,27) + 53743.25414 x(9,27) + 0 x(9,27) + 216 x(9,27) + 4158.1 x(9,27) + 15774 x(9,28) + 2000 x(9,28) + 5.0 x(9,28) + 1050.0 x(9,28) + 1000.0 x(9,28) + 53743.25414 x(9,28) + 0 x(9,28) + 755 x(9,28) + 2558.7799999999997 x(9,28) + 15172 x(9,29) + 2000 x(9,29) + 5.0 x(9,29) + 1050.0 x(9,29) + 1000.0 x(9,29) + 53743.25414 x(9,29) + 0 x(9,29) + 755 x(9,29) + 195.4 x(9,29) + 14850 x(9,30) + 2000 x(9,30) + 5.0 x(9,30) + 1050.0 x(9,30) + 1000.0 x(9,30) + 53743.25414 x(9,30) + 0 x(9,30) + 755 x(9,30) + 394.02 x(9,30) + 14652 x(9,31) + 2000 x(9,31) + 5.0 x(9,31) + 1050.0 x(9,31) + 1000.0 x(9,31) + 53743.25414 x(9,31) + 0 x(9,31) + 755 x(9,31) + 792.0 x(9,31) + 14584 x(9,32) + 2000 x(9,32) + 5.0 x(9,32) + 1050.0 x(9,32) + 1000.0 x(9,32) + 53743.25414 x(9,32) + 0 x(9,32) + 755 x(9,32) + 792.6800000000001 x(9,32) + 14584 x(9,33) + 2000 x(9,33) + 5.0 x(9,33) + 1050.0 x(9,33) + 1000.0 x(9,33) + 53743.25414 x(9,33) + 0 x(9,33) + 755 x(9,33) + 792.6800000000001 x(9,33) + 14402 x(9,34) + 2000 x(9,34) + 5.0 x(9,34) + 1050.0 x(9,34) + 1000.0 x(9,34) + 53743.25414 x(9,34) + 0 x(9,34) + 16 x(9,34) + 0 x(9,34) + 11967 x(9,35) + 2000 x(9,35) + 5.0 x(9,35) + 1050.0 x(9,35) + 1000.0 x(9,35) + 53743.25414 x(9,35) + 0 x(9,35) + 755 x(9,35) + 422.85 x(9,35) + 11652 x(9,36) + 2000 x(9,36) + 5.0 x(9,36) + 1050.0 x(9,36) + 1000.0 x(9,36) + 53743.25414 x(9,36) + 0 x(9,36) + 755 x(9,36) + 426.0 x(9,36) + 11288 x(9,37) + 2000 x(9,37) + 5.0 x(9,37) + 1050.0 x(9,37) + 1000.0 x(9,37) + 53743.25414 x(9,37) + 0 x(9,37) + 755 x(9,37) + 858.64 x(9,37) + 9372 x(9,38) + 2000 x(9,38) + 5.0 x(9,38) + 1050.0 x(9,38) + 1000.0 x(9,38) + 53743.25414 x(9,38) + 0 x(9,38) + 0 x(9,38) + 896.8 x(9,38) + 3052 x(9,39) + 2000 x(9,39) + 5.0 x(9,39) + 1050.0 x(9,39) + 1000.0 x(9,39) + 53743.25414 x(9,39) + 0 x(9,39) + 108 x(9,39) + 1024.0 x(9,39) + 3052 x(9,40) + 2000 x(9,40) + 5.0 x(9,40) + 1050.0 x(9,40) + 1000.0 x(9,40) + 53743.25414 x(9,40) + 0 x(9,40) + 108 x(9,40) + 512.0 x(9,40) + 3052 x(9,41) + 2000 x(9,41) + 5.0 x(9,41) + 1050.0 x(9,41) + 1000.0 x(9,41) + 53743.25414 x(9,41) + 0 x(9,41) + 108 x(9,41) + 512.0 x(9,41) + 27772 x(10,1) + 2000 x(10,1) + 5.0 x(10,1) + 400.0 x(10,1) + 400.0 x(10,1) + 4912.5 x(10,1) + 61.0 x(10,1) + 755 x(10,1) + 529.8 x(10,1)
subject to
c1: x(1,1) + x(1,2) + x(1,3) + x(1,4) + x(1,5) + x(2,1) + x(2,2) + x(2,3) + x(3,1) + x(3,2) + x(3,3) + x(3,4) + x(4,1) + x(4,2) + x(4,3) + x(4,4) + x(4,5) + x(5,1) + x(5,2) + x(5,3) + x(5,4) + x(5,5) + x(5,6) + x(5,7) + x(5,8) + x(5,9) + x(5,10) + x(6,1) + x(6,2) + x(6,3) + x(7,1) + x(7,2) + x(7,3) + x(7,4) + x(7,5) + x(7,6) + x(7,7) + x(7,8) + x(7,9) + x(7,10) + x(7,11) + x(7,12) + x(7,13) + x(7,14) + x(7,15) + x(7,16) + x(7,17) + x(7,18) + x(7,19) + x(7,20) + x(7,21) + x(7,22) + x(7,23) + x(7,24) + x(7,25) + x(7,26) + x(7,27) + x(7,28) + x(7,29) + x(7,30) + x(7,31) + x(7,32) + x(7,33) + x(7,34) + x(7,35) + x(7,36) + x(8,1) + x(9,1) + x(9,2) + x(9,3) + x(9,4) + x(9,5) + x(9,6) + x(9,7) + x(9,8) + x(9,9) + x(9,10) + x(9,11) + x(9,12) + x(9,13) + x(9,14) + x(9,15) + x(9,16) + x(9,17) + x(9,18) + x(9,19) + x(9,20) + x(9,21) + x(9,22) + x(9,23) + x(9,24) + x(9,25) + x(9,26) + x(9,27) + x(9,28) + x(9,29) + x(9,30) + x(9,31) + x(9,32) + x(9,33) + x(9,34) + x(9,35) + x(9,36) + x(9,37) + x(9,38) + x(9,39) + x(9,40) + x(9,41) + x(10,1) >= 1
c2: 1000 x(1,1) + 1000 x(1,2) + 1000 x(1,3) + 1000 x(1,4) + 1000 x(1,5) + 1000 x(2,1) + 1000 x(2,2) + 1000 x(2,3) + 960 x(3,1) + 960 x(3,2) + 960 x(3,3) + 960 x(3,4) + 2000 x(4,1) + 2000 x(4,2) + 2000 x(4,3) + 2000 x(4,4) + 2000 x(4,5) + 2000 x(5,1) + 2000 x(5,2) + 2000 x(5,3) + 2000 x(5,4) + 2000 x(5,5) + 2000 x(5,6) + 2000 x(5,7) + 2000 x(5,8) + 2000 x(5,9) + 2000 x(5,10) + 2000 x(6,1) + 2000 x(6,2) + 2000 x(6,3) + 1000 x(7,1) + 1000 x(7,2) + 1000 x(7,3) + 1000 x(7,4) + 1000 x(7,5) + 1000 x(7,6) + 1000 x(7,7) + 1000 x(7,8) + 1000 x(7,9) + 1000 x(7,10) + 1000 x(7,11) + 1000 x(7,12) + 1000 x(7,13) + 1000 x(7,14) + 1000 x(7,15) + 1000 x(7,16) + 1000 x(7,17) + 1000 x(7,18) + 1000 x(7,19) + 1000 x(7,20) + 1000 x(7,21) + 1000 x(7,22) + 1000 x(7,23) + 1000 x(7,24) + 1000 x(7,25) + 1000 x(7,26) + 1000 x(7,27) + 1000 x(7,28) + 1000 x(7,29) + 1000 x(7,30) + 1000 x(7,31) + 1000 x(7,32) + 1000 x(7,33) + 1000 x(7,34) + 1000 x(7,35) + 1000 x(7,36) + 1000 x(8,1) + 2000 x(9,1) + 2000 x(9,2) + 2000 x(9,3) + 2000 x(9,4) + 2000 x(9,5) + 2000 x(9,6) + 2000 x(9,7) + 2000 x(9,8) + 2000 x(9,9) + 2000 x(9,10) + 2000 x(9,11) + 2000 x(9,12) + 2000 x(9,13) + 2000 x(9,14) + 2000 x(9,15) + 2000 x(9,16) + 2000 x(9,17) + 2000 x(9,18) + 2000 x(9,19) + 2000 x(9,20) + 2000 x(9,21) + 2000 x(9,22) + 2000 x(9,23) + 2000 x(9,24) + 2000 x(9,25) + 2000 x(9,26) + 2000 x(9,27) + 2000 x(9,28) + 2000 x(9,29) + 2000 x(9,30) + 2000 x(9,31) + 2000 x(9,32) + 2000 x(9,33) + 2000 x(9,34) + 2000 x(9,35) + 2000 x(9,36) + 2000 x(9,37) + 2000 x(9,38) + 2000 x(9,39) + 2000 x(9,40) + 2000 x(9,41) + 2000 x(10,1) >= 6000
c3: 11780 x(1,1) + 13499 x(1,2) + 19242 x(1,3) + 21360 x(1,4) + 21360 x(1,5) + 13824 x(2,1) + 13970 x(2,2) + 20850 x(2,3) + 9350 x(3,1) + 9835 x(3,2) + 10450 x(3,3) + 10699 x(3,4) + 23467 x(4,1) + 23468 x(4,2) + 33877 x(4,3) + 37610 x(4,4) + 37610 x(4,5) + 26980 x(5,1) + 26980 x(5,2) + 32280 x(5,3) + 33498 x(5,4) + 33930 x(5,5) + 35348 x(5,6) + 35545 x(5,7) + 37210 x(5,8) + 37210 x(5,9) + 54252 x(5,10) + 23630 x(6,1) + 23800 x(6,2) + 24500 x(6,3) + 20380 x(7,1) + 20380 x(7,2) + 20380 x(7,3) + 20380 x(7,4) + 20864 x(7,5) + 21469 x(7,6) + 21470 x(7,7) + 21470 x(7,8) + 21470 x(7,9) + 21470 x(7,10) + 21470 x(7,11) + 21470 x(7,12) + 21470 x(7,13) + 21470 x(7,14) + 21470 x(7,15) + 21600 x(7,16) + 21603 x(7,17) + 22032 x(7,18) + 22224 x(7,19) + 22435 x(7,20) + 22528 x(7,21) + 22610 x(7,22) + 22610 x(7,23) + 22610 x(7,24) + 22700 x(7,25) + 22780 x(7,26) + 23224 x(7,27) + 23224 x(7,28) + 23650 x(7,29) + 23800 x(7,30) + 25080 x(7,31) + 25410 x(7,32) + 25476 x(7,33) + 26794 x(7,34) + 28600 x(7,35) + 28600 x(7,36) + 12268 x(8,1) + 32800 x(9,1) + 32801 x(9,2) + 33293 x(9,3) + 33649 x(9,4) + 33858 x(9,5) + 33981 x(9,6) + 34051 x(9,7) + 34296 x(9,8) + 35555 x(9,9) + 35880 x(9,10) + 35909 x(9,11) + 35910 x(9,12) + 35910 x(9,13) + 35910 x(9,14) + 35910 x(9,15) + 35910 x(9,16) + 35910 x(9,17) + 35910 x(9,18) + 35910 x(9,19) + 36075 x(9,20) + 36075 x(9,21) + 36450 x(9,22) + 36768 x(9,23) + 37521 x(9,24) + 37810 x(9,25) + 37810 x(9,26) + 37810 x(9,27) + 38478 x(9,28) + 39080 x(9,29) + 39402 x(9,30) + 39600 x(9,31) + 39668 x(9,32) + 39668 x(9,33) + 39850 x(9,34) + 42285 x(9,35) + 42600 x(9,36) + 42964 x(9,37) + 44880 x(9,38) + 51200 x(9,39) + 51200 x(9,40) + 51200 x(9,41) + 26480 x(10,1) <= 50000
bounds
x(1,1)
x(1,2)
x(1,3)
x(1,4)
x(1,5)
x(2,1)
x(2,2)
x(2,3)
x(3,1)
x(3,2)
x(3,3)
x(3,4)
x(4,1)
x(4,2)
x(4,3)
x(4,4)
x(4,5)
x(5,1)
x(5,2)
x(5,3)
x(5,4)
x(5,5)
x(5,6)
x(5,7)
x(5,8)
x(5,9)
x(5,10)
x(6,1)
x(6,2)
x(6,3)
x(7,1)
x(7,2)
x(7,3)
x(7,4)
x(7,5)
x(7,6)
x(7,7)
x(7,8)
x(7,9)
x(7,10)
x(7,11)
x(7,12)
x(7,13)
x(7,14)
x(7,15)
x(7,16)
x(7,17)
x(7,18)
x(7,19)
x(7,20)
x(7,21)
x(7,22)
x(7,23)
x(7,24)
x(7,25)
x(7,26)
x(7,27)
x(7,28)
x(7,29)
x(7,30)
x(7,31)
x(7,32)
x(7,33)
x(7,34)
x(7,35)
x(7,36)
x(8,1)
x(9,1)
x(9,2)
x(9,3)
x(9,4)
x(9,5)
x(9,6)
x(9,7)
x(9,8)
x(9,9)
x(9,10)
x(9,11)
x(9,12)
x(9,13)
x(9,14)
x(9,15)
x(9,16)
x(9,17)
x(9,18)
x(9,19)
x(9,20)
x(9,21)
x(9,22)
x(9,23)
x(9,24)
x(9,25)
x(9,26)
x(9,27)
x(9,28)
x(9,29)
x(9,30)
x(9,31)
x(9,32)
x(9,33)
x(9,34)
x(9,35)
x(9,36)
x(9,37)
x(9,38)
x(9,39)
x(9,40)
x(9,41)
x(10,1)
binary
x(1,1)
x(1,2)
x(1,3)
x(1,4)
x(1,5)
x(2,1)
x(2,2)
x(2,3)
x(3,1)
x(3,2)
x(3,3)
x(3,4)
x(4,1)
x(4,2)
x(4,3)
x(4,4)
x(4,5)
x(5,1)
x(5,2)
x(5,3)
x(5,4)
x(5,5)
x(5,6)
x(5,7)
x(5,8)
x(5,9)
x(5,10)
x(6,1)
x(6,2)
x(6,3)
x(7,1)
x(7,2)
x(7,3)
x(7,4)
x(7,5)
x(7,6)
x(7,7)
x(7,8)
x(7,9)
x(7,10)
x(7,11)
x(7,12)
x(7,13)
x(7,14)
x(7,15)
x(7,16)
x(7,17)
x(7,18)
x(7,19)
x(7,20)
x(7,21)
x(7,22)
x(7,23)
x(7,24)
x(7,25)
x(7,26)
x(7,27)
x(7,28)
x(7,29)
x(7,30)
x(7,31)
x(7,32)
x(7,33)
x(7,34)
x(7,35)
x(7,36)
x(8,1)
x(9,1)
x(9,2)
x(9,3)
x(9,4)
x(9,5)
x(9,6)
x(9,7)
x(9,8)
x(9,9)
x(9,10)
x(9,11)
x(9,12)
x(9,13)
x(9,14)
x(9,15)
x(9,16)
x(9,17)
x(9,18)
x(9,19)
x(9,20)
x(9,21)
x(9,22)
x(9,23)
x(9,24)
x(9,25)
x(9,26)
x(9,27)
x(9,28)
x(9,29)
x(9,30)
x(9,31)
x(9,32)
x(9,33)
x(9,34)
x(9,35)
x(9,36)
x(9,37)
x(9,38)
x(9,39)
x(9,40)
x(9,41)
x(10,1)
end